477,6
681,856
512,529
847,-107
282,277
830,112
641,486
681,586
742,21
868,501
681,916
718,520
721,326
753,354
334,229
713,613
814,474
342,67
342,160
694,380
733,478
786,261
850,529
744,343
753,354
710,410
261,406
727,110
